c @top --> 82
c p10@v2 --> 81
c p10@v1 --> 80
c p10@v0 --> 79
c p8@v2 --> 78
c p8@v1 --> 77
c p8@v0 --> 76
c p3@v0 --> 73
c p7@v3 --> 72
c p3@v1 --> 74
c p7@v0 --> 69
c p7@v2 --> 71
c p11@v3 --> 68
c p11@v2 --> 67
c p11@v1 --> 66
c p4 --> 64
c p15@v1 --> 62
c p15@v0 --> 61
c p3@v2 --> 75
c p24@v0 --> 8
c p9@v2 --> 43
c p12@v1 --> 46
c p22@v1 --> 6
c p6@v1 --> 55
c p16@v2 --> 29
c p17@v1 --> 20
c p21@v3 --> 36
c p7@v1 --> 70
c p17@v3 --> 22
c p20@v0 --> 24
c p18@v0 --> 15
c p18@v1 --> 16
c p19@v3 --> 14
c p1 --> 48
c p23@v3 --> 4
c p5@v2 --> 51
c p18@v3 --> 18
c p22@v0 --> 5
c p16@v1 --> 28
c p12@v0 --> 45
c p22@v2 --> 7
c p2@v2 --> 60
c p16@v0 --> 27
c p23@v0 --> 1
c p2@v0 --> 58
c p23@v2 --> 3
c p20@v2 --> 26
c p19@v0 --> 11
c p21@v1 --> 34
c p17@v4 --> 23
c p15@v2 --> 63
c p21@v2 --> 35
c p5@v0 --> 49
c p24@v2 --> 10
c p24@v1 --> 9
c p9@v0 --> 41
c p19@v1 --> 12
c p9@v1 --> 42
c p14@v0 --> 30
c p6@v0 --> 54
c p14@v1 --> 31
c p14@v2 --> 32
c p6@v3 --> 57
c p21@v0 --> 33
c p13@v0 --> 37
c p17@v2 --> 21
c p23@v1 --> 2
c p13@v1 --> 38
c p11@v0 --> 65
c p0 --> 40
c p2@v1 --> 59
c p9@v3 --> 44
c p17@v0 --> 19
c p12@v2 --> 47
c p18@v2 --> 17
c p5@v1 --> 50
c p5@v3 --> 52
c p5@v4 --> 53
c p20@v1 --> 25
c p13@v2 --> 39
c p19@v2 --> 13
c p6@v2 --> 56
p cnf 82 252
-43 -33 0
-71 -41 0
-44 48 0
-37 -4 0
-1 -67 0
-56 -16 0
-37 -36 0
-14 -15 0
-3 -33 0
-57 -69 0
-35 -40 0
-57 48 0
-18 -33 0
-69 -67 0
-56 -41 0
-56 -17 0
-40 -63 0
-48 0
-68 -69 0
-13 -33 0
-11 -36 0
-2 -67 0
64 -29 0
-11 -34 0
-11 -35 0
-4 -33 0
-72 -41 0
-60 0
-27 -40 0
-28 64 0
-11 -71 0
-56 -48 0
-70 -65 0
-66 -41 0
-38 -13 0
-36 -1 0
-57 -41 0
-38 -17 0
-12 -33 0
-64 -29 0
-66 -54 0
-54 -43 0
-66 -69 0
-54 -42 0
-12 -71 0
-37 -18 0
-54 -67 0
-35 -1 0
-11 -2 0
-15 -4 0
-11 -3 0
-15 -3 0
-15 -2 0
-70 -41 0
-38 -35 0
-55 -41 0
-15 -56 0
-55 -65 0
-34 -40 0
-68 -41 0
-13 -71 0
-34 -1 0
-16 -1 0
-42 -65 0
-40 -36 0
-56 -65 0
-48 -67 0
-12 -1 0
-40 -30 0
-11 -4 0
-38 -3 0
-41 -67 0
-48 -43 0
-40 -13 0
-2 -33 0
-68 48 0
-3 -40 0
-15 -34 0
-15 -35 0
-17 -1 0
-15 -36 0
-13 -1 0
-57 -65 0
-15 -13 0
-44 -54 0
-68 -54 0
-35 -43 0
-42 -69 0
-72 48 0
-4 -40 0
-14 -40 0
-55 -69 0
-18 -1 0
-16 -33 0
-14 -33 0
-58 0
-44 -65 0
-28 -40 0
-3 -67 0
-38 -48 0
-14 -1 0
-32 -40 0
-12 -15 0
-72 -54 0
-34 -43 0
-43 -69 0
-71 -65 0
-37 -14 0
-27 -64 0
-54 -71 0
-56 -69 0
-70 -54 0
-17 -33 0
-37 48 0
-43 -65 0
-48 -71 0
-40 -61 0
-44 -69 0
-72 -65 0
-29 0
-11 -16 0
-11 -17 0
-11 -18 0
-2 -40 0
-12 -40 0
1 2 3 4 0
-1 -2 0
-1 -3 0
-1 -4 0
-2 -3 0
-2 -4 0
-3 -4 0
5 6 7 0
-5 -6 0
-5 -7 0
-6 -7 0
8 9 10 0
-8 -9 0
-8 -10 0
-9 -10 0
11 12 13 14 0
-11 -12 0
-11 -13 0
-11 -14 0
-12 -13 0
-12 -14 0
-13 -14 0
15 16 17 18 0
-15 -16 0
-15 -17 0
-15 -18 0
-16 -17 0
-16 -18 0
-17 -18 0
19 20 21 22 23 0
-19 -20 0
-19 -21 0
-19 -22 0
-19 -23 0
-20 -21 0
-20 -22 0
-20 -23 0
-21 -22 0
-21 -23 0
-22 -23 0
24 25 26 0
-24 -25 0
-24 -26 0
-25 -26 0
27 28 29 0
-27 -28 0
-27 -29 0
-28 -29 0
30 31 32 0
-30 -31 0
-30 -32 0
-31 -32 0
33 34 35 36 0
-33 -34 0
-33 -35 0
-33 -36 0
-34 -35 0
-34 -36 0
-35 -36 0
37 38 39 0
-37 -38 0
-37 -39 0
-38 -39 0
41 42 43 44 0
-41 -42 0
-41 -43 0
-41 -44 0
-42 -43 0
-42 -44 0
-43 -44 0
45 46 47 0
-45 -46 0
-45 -47 0
-46 -47 0
49 50 51 52 53 0
-49 -50 0
-49 -51 0
-49 -52 0
-49 -53 0
-50 -51 0
-50 -52 0
-50 -53 0
-51 -52 0
-51 -53 0
-52 -53 0
54 55 56 57 0
-54 -55 0
-54 -56 0
-54 -57 0
-55 -56 0
-55 -57 0
-56 -57 0
58 59 60 0
-58 -59 0
-58 -60 0
-59 -60 0
61 62 63 0
-61 -62 0
-61 -63 0
-62 -63 0
65 66 67 68 0
-65 -66 0
-65 -67 0
-65 -68 0
-66 -67 0
-66 -68 0
-67 -68 0
69 70 71 72 0
-69 -70 0
-69 -71 0
-69 -72 0
-70 -71 0
-70 -72 0
-71 -72 0
73 74 75 0
-73 -74 0
-73 -75 0
-74 -75 0
76 77 78 0
-76 -77 0
-76 -78 0
-77 -78 0
79 80 81 0
-79 -80 0
-79 -81 0
-80 -81 0
82 -82 0
